(declare-const a Real)
(declare-const b Real)
(declare-const c Real)
(assert (= (* a b c) 1))
(assert (> a 0))
(assert (> b 0))
(assert (> c 0))
(assert (not (<= (+ (* 27 (pow a -3) (pow (+ b c) -1)) (* 27 (pow b -3) (pow (+ a c) -1)) (* 27 (pow c -3) (pow (+ a b) -1)) (* -8 (pow (+ (pow (* a b c (+ a b)) (* 1 (pow 3 -1))) (pow (* a b c (+ a c)) (* 1 (pow 3 -1))) (pow (* a b c (+ b c)) (* 1 (pow 3 -1)))) 3) (pow (+ (* (pow a (/ 3 2)) (+ b c)) (* (pow b (/ 3 2)) (+ a c)) (* (pow c (/ 3 2)) (+ a b))) -2) (pow (+ (* a b (pow c -2) (pow (+ a b) -1)) (* a c (pow b -2) (pow (+ a c) -1)) (* b c (pow a -2) (pow (+ b c) -1))) 3))) 0)))
(check-sat)
(get-model)
(exit)